max_width = 32;
n_blocks = 27;
width = [3, 3, 3, 4, 3, 3, 3, 3, 4, 3, 4, 3, 3, 3, 3, 4, 3, 3, 4, 3, 4, 3, 4, 3, 3, 4, 3];
height = [27, 25, 24, 18, 23, 22, 18, 15, 11, 14, 10, 13, 12, 11, 10, 7, 9, 8, 6, 7, 5, 6, 4, 5, 4, 3, 3];
